proyfinal/src/viki/013/experimentInOfficeAgust.take6.output/76b0c97b-edbc-4d0d-9f5a-015fab95260d.als.out
Reading from standard input... Use '--help' for help.
============================[ Problem Statistics ]=============================
|                                                                             |
|  Number of variables:         87638                                         |
|  Number of clauses:          161767                                         |
|  Parse time:                   0.03 s                                       |
|                                                                             |
============================[ Search Statistics ]==============================
| Conflicts |          ORIGINAL         |          LEARNT          | Progress |
|           |    Vars  Clauses Literals |    Limit  Clauses Lit/Cl |          |
===============================================================================
|       100 |   63952   110795   276757 |    40624      100     41 | 27.027 % |
|       250 |   63952   110795   276757 |    44687      250    107 | 27.027 % |
|       475 |   56760    88758   222512 |    49156      454     83 | 35.234 % |
|       812 |   56747    88666   222325 |    54071      778     62 | 35.248 % |
|      1318 |   56626    88273   221330 |    59478     1282     52 | 35.386 % |
|      2077 |   56559    88229   221240 |    65426     2037     45 | 35.463 % |
|      3216 |   56397    87251   218881 |    71969     3059     52 | 35.648 % |
|      4924 |   56357    87097   218538 |    79166     4752     52 | 35.693 % |
|      7486 |   56356    87094   218532 |    87082     7311     61 | 35.695 % |
|     11330 |   56008    85710   215269 |    95791    11109     65 | 36.092 % |
|     17096 |   55777    84827   213182 |   105370    16807     70 | 36.355 % |
===============================================================================
restarts              : 63
conflicts             : 19158          (7845 /sec)
decisions             : 78948          (0.00 % random) (32328 /sec)
propagations          : 27436417       (11234695 /sec)
conflict literals     : 1307033        (43.87 % deleted)
Memory used           : 28.78 MB
CPU time              : 2.44211 s

INDETERMINATE
